10 42 11
1 1 0 1
1 2 2 3 4
1 3 6 7 5
1 4 10 19 8
1 5 13 12 15 14 11
1 6 19 16 20 17 18
1 7 25 21 24 23 22
1 8 28 31 30 29 26 27
1 9 36 33 37 32 34 35
1 10 38 43 41 39 42 40
1
1
1
1
1
1
1
1
1
1
1
1
1
1
1
1
1
1
1
1
1
1
1
1
1
1
1
1
1
1
1
1
1
1
1
1
1
1
1
1
1
1